/*********************************************
 * OPL 22.1.0.0 Data
 * Author: Hello
 * Creation Date: Mar 4, 2023 at 11:35:16 AM
 *********************************************/
n = 12;
m = 4;
p = [5,5,4,4,4,4,4,5,4,4,4,4];
T = 15; 
B = 47;
C = [ #<_i: 10, _j: 2>#,
#<_i: 11, _j: 5>#,
];
q = [4,3,3,3,5,3,2,4,2,5,1,2];
